CMD:
./solvers/bin/cadical --plain --no-reduce -t 1600 ./data/cnfs//cal125/cal125.28.cnf

c --- [ banner ] -------------------------------------------------------------
c 
c CaDiCaL SAT Solver
c Copyright (c) 2016-2024
c A. Biere, M. Fleury, N. Froleyks, K. Fazekas, F. Pollitt, T. Faller
c JKU Linz, University of Freiburg, TU Wien
c 
c Version 2.1.3 5296d3d2a9bf48c154ab2acb5e44625776d821bf
c g++ (Gentoo 12.3.1_p20230526 p2) 12.3.1 20230526 -Wall -Wextra -O3 -DNDEBUG
c Sat Aug 9 07:26:21 PDT 2025 Linux cedar2.int.cedar.computecanada.ca 5.14.0-362.24.2.el9_3.x86_64 x86_64
c 
c --- [ limit ] --------------------------------------------------------------
c 
c setting time limit to 1600 seconds real time (due to '-t 1600')
c 
c --- [ parsing input ] ------------------------------------------------------
c 
c reading DIMACS file from './data/cnfs//cal125/cal125.28.cnf'
c opening file to read './data/cnfs//cal125/cal125.28.cnf'
c found 'p cnf 801032 2278726' header
c parsed 2278726 clauses in 0.41 seconds process time
c 
c --- [ options ] ------------------------------------------------------------
c 
c   --compact=false                (different from default 'true')
c   --decompose=false              (different from default 'true')
c   --deduplicate=false            (different from default 'true')
c   --elim=false                   (different from default 'true')
c   --probe=false                  (different from default 'true')
c   --reduce=false                 (different from default 'true')
c   --subsume=false                (different from default 'true')
c   --ternary=false                (different from default 'true')
c   --transred=false               (different from default 'true')
c   --vivify=false                 (different from default 'true')
c 
c --- [ solving ] ------------------------------------------------------------
c 
c time measured in process time since initialization
c 
c  seconds   reductions  redundant   irredundant
c          MB    restarts       trail        variables
c           level   conflicts       glue           remaining
c 
c *  0.41 342  0 0   0    0    0  0% 0 2125051 766181 96%
c {  0.43 342  0 0   0    0    0  0% 0 2125051 766181 96%
c i  0.43 343 1054 0   0   15   13  7% 2 2125051 766177 96%
c i  0.47 343 514 0   1  209  193  6% 3 2125051 766172 96%
c i  0.48 344 656 0   1  216  198  6% 3 2125051 766168 96%
c i  0.49 344 830 0   1  223  203  7% 3 2125051 766164 96%
c i  0.50 344 1034 0   1  230  208  7% 3 2125051 766160 96%
c i  0.51 344 1264 0   1  237  213  8% 3 2125051 766156 96%
c i  0.52 345 1520 0   1  244  218  9% 3 2125051 766152 96%
c i  0.53 346 1799 0   1  251  223  9% 3 2125051 766148 96%
c i  0.54 346 2099 0   1  258  228 10% 3 2125051 766144 96%
c i  0.55 346 2419 0   1  265  233 11% 3 2125051 766140 96%
c i  0.56 346 2757 0   1  272  238 12% 3 2125051 766136 96%
c i  0.57 346 3113 0   1  279  243 13% 3 2125051 766132 96%
c i  0.58 346 3484 0   1  286  248 13% 3 2125051 766128 96%
c i  0.60 347 3871 0   1  293  253 14% 3 2125051 766124 96%
c i  0.61 347 4271 0   1  300  258 15% 3 2125051 766120 96%
c i  0.62 347 4685 0   1  307  263 16% 3 2125051 766116 96%
c i  0.63 347 5110 0   1  314  268 17% 3 2125051 766112 96%
c i  0.64 351 5548 0   1  321  273 19% 3 2125051 766108 96%
c 
c  seconds     reductions  redundant   irredundant
c          MB      restarts       trail        variables
c            level    conflicts       glue           remaining
c 
c i  0.65 351 5996 0   1  328  278 20% 3 2125051 766104 96%
c i  0.67 351 6454 0   1  335  283 21% 3 2125051 766100 96%
c i  0.68 351 6922 0   1  342  288 22% 3 2125051 766096 96%
c i  0.69 351 7399 0   1  349  293 23% 2 2125051 766092 96%
c i  0.71 351 7885 0   1  356  298 24% 2 2125051 766088 96%
c i  0.72 351 8378 0   1  363  303 25% 2 2125051 766084 96%
c i  0.73 351 8880 0   1  370  308 27% 2 2125051 766080 96%
c i  0.75 351 9388 0   1  377  313 28% 2 2125051 766076 96%
c }  1.95 353 7095 0  90 1000  905 25% 2 2125051 766051 96%
c [  1.95 353  0 0  90 1000  905  0% 0 2125051 766051 96%
c O  1.98 353 1422 0  90 1002  907  8% 1 2125051 766051 96%
c ]  3.04 354 22077 0  91 3001 2650 71% 5 2125051 766051 96%
c {  3.04 354 7095 0  91 3001 2650 25% 2 2125051 766051 96%
c F  3.10 354 7081 0  92 3003 2652 25% 2 2125051 766051 96%
c #  7.89 356 1862 0 643 6004 5376 19% 4 2125051 766051 96%
c i  9.17 356 1538 0 744 6911 6217 20% 4 2125051 766049 96%
c }  9.29 356 1518 0 751 7001 6302 21% 4 2125051 766048 96%
c [  9.29 356 22077 0 751 7001 6302 71% 5 2125051 766048 96%
c I 10.50 357 9616 0 753 10005 9055 48% 6 2125051 766048 96%
c i 10.64 357 5240 0 756 14017 12344 28% 5 2125051 765161 96%
c 
c  seconds     reductions    redundant   irredundant
c          MB      restarts         trail        variables
c            level     conflicts        glue           remaining
c 
c ] 11.05 358 4712 0 756 15001 13313 28% 6 2125051 765161 96%
c { 11.05 358 1518 0 756 15001 13313 21% 4 2125051 765161 96%
c B 11.08 358 1516 0 758 15006 13318 21% 4 2125051 765161 96%
c W 19.33 359 739 0 1429 21008 17993 19% 4 2084150 765161 96%
... skipped 329 lines ...
c i 972.55 821 154 0 67417 1709772 1454161 20% 12 2078373 763870 95%
c i 973.81 821 154 0 67494 1710697 1455006 21% 13 2078373 763868 95%
c B 974.13 821 154 0 67579 1711105 1455282 20% 13 2078373 763867 95%
c i 987.24 824 141 0 69867 1727865 1468492 20% 13 2078373 763864 95%
c i 1017.86 835 135 0 72826 1762382 1497138 19% 13 2078373 763861 95%
c i 1017.86 835 135 0 72826 1762385 1497140 19% 13 2078373 763858 95%
c W 1026.10 859 136 0 73272 1770108 1503779 19% 13 2078290 763858 95%
c i 1028.61 859 135 0 73493 1772693 1505888 19% 13 2078290 763855 95%
c F 1074.67 860 124 0 79062 1830109 1551583 19% 13 2078290 763855 95%
c i 1077.65 860 124 0 79416 1832561 1553589 19% 13 2078290 763852 95%
c i 1123.75 862 117 0 85572 1888133 1596908 18% 13 2078290 763851 95%
c B 1126.77 862 119 0 85691 1891111 1599579 18% 13 2078290 763851 95%
c 
c   seconds     reductions         redundant     irredundant
c            MB      restarts              trail         variables
c              level       conflicts           glue            remaining
c 
c i 1146.08 866 119 0 87469 1909718 1614311 18% 13 2078290 763850 95%
c i 1146.11 866 120 0 87469 1909964 1614535 18% 13 2078290 763848 95%
c i 1146.11 866 120 0 87469 1909968 1614538 18% 13 2078290 763844 95%
c i 1148.04 867 123 0 87494 1912398 1616784 18% 13 2078290 763842 95%
c i 1148.04 867 123 0 87494 1912432 1616816 18% 13 2078290 763839 95%
c i 1148.15 867 123 0 87501 1912659 1617004 18% 13 2078290 763836 95%
c i 1179.09 878 122 0 89732 1944726 1644307 19% 12 2078290 763833 95%
c i 1187.30 880 120 0 90904 1952991 1650622 19% 13 2078290 763831 95%
c W 1188.34 902 120 0 90921 1953114 1650727 19% 13 2078198 763830 95%
c i 1224.68 904 127 0 94073 1987796 1678788 19% 13 2078198 763827 95%
c i 1244.30 907 125 0 95251 2005460 1693713 19% 12 2078198 763826 95%
c i 1248.05 907 125 0 95768 2009100 1696377 19% 12 2078198 763825 95%
c # 1254.82 907 129 0 96330 2016115 1702428 19% 12 2078198 763825 95%
c } 1302.88 908 125 0 98882 2047012 1729575 19% 12 2078198 763825 95%
c [ 1302.88 908 329 0 98882 2047012 1729575 19% 29 2078198 763825 95%
c I 1333.23 910 384 0 98896 2080117 1760805 24% 26 2078198 763825 95%
c i 1341.40 914 357 0 98901 2090646 1770802 24% 26 2078198 763822 95%
c i 1348.25 916 350 0 98901 2095714 1775423 24% 26 2078198 763819 95%
c B 1404.26 936 368 0 98917 2145122 1822077 29% 26 2078198 763819 95%
c i 1413.99 940 361 0 98921 2152181 1828778 29% 26 2078198 763817 95%
c 
c   seconds       reductions         redundant     irredundant
c            MB        restarts              trail         variables
c               level        conflicts           glue            remaining
c 
c W 1516.13 1029 4501 0 98934 2211125 1884458 37% 22 2078156 763817 95%
c O 1577.08 1030 2786 0 98935 2278126 1948023 40% 26 2078156 763817 95%
c ] 1590.17 1030 2308 0 98936 2297767 1964751 38% 27 2078156 763817 95%
c ? 1590.17 1030 2308 0 98936 2297767 1964751 38% 27 2078156 763817 95%
c 
c --- [ result ] -------------------------------------------------------------
c 
c UNKNOWN
c 
c --- [ run-time profiling ] -------------------------------------------------
c 
c process time taken by individual solving procedures
c (percentage relative to process time for solving)
c 
c      1589.76  100.00% search
c       978.96   61.58% unstable
c       595.65   37.47% stable
c        15.14    0.95% walk
c         0.41    0.03% parse
c         0.01    0.00% lucky
c         0.00    0.00% simplify
c   =================================
c      1589.76   99.97% solve
c 
c last line shows process time for solving
c (percentage relative to total process time)
c 
c --- [ statistics ] ---------------------------------------------------------
c 
c chronological:            646742        28.15 %  of conflicts
c conflicts:               2297767      1445.35    per second
c decisions:              10137084      6376.48    per second
c fixed:                     37214         4.65 %  of all variables
c learned:                 2222715        96.73 %  per conflict
c learned_lits:          208451368       100.00 %  learned literals
c minimized:                     0         0.00 %  learned literals
c shrunken:               60786116        29.16 %  learned literals
c minishrunken:           41771313        20.04 %  learned literals
c otfs:                       7517         0.33 %  of conflict
c propagations:        12376928204         7.79 M  per second
c rephased:                     67     34295.03    interval
c restarts:                  98936        23.22    interval
c stabilizing:                   6        40.58 %  of conflicts
c subsumed:                 255976         5.89 %  of all clauses
c strengthened:               6992         0.16 %  of all clauses
c walked:                       21    109417.48    interval
c 
c seconds are measured in process time for solving
c 
c --- [ resources ] ----------------------------------------------------------
c 
c total process time since initialization:      1590.18    seconds
c total real time since initialization:         1600.00    seconds
c maximum resident set size of process:         1415.55    MB
c 
c --- [ shutting down ] ------------------------------------------------------
c 
c exit 0
